examples/xqf131.opt.tour
NAME: xqf131
COMMENT: Tour length 564
TYPE: TOUR
DIMENSION: 131
TOUR_SECTION
1
12
5
13
18
25
16
14
15
17
19
27
26
45
53
74
64
68
75
77
78
81
82
87
88
92
94
99
93
89
98
112
123
130
121
118
114
105
100
101
102
106
107
108
113
124
125
126
131
127
128
129
122
117
120
116
119
115
109
110
111
103
104
97
96
95
91
90
86
85
84
83
79
80
72
73
61
60
59
58
63
67
71
76
70
66
69
65
62
56
57
52
51
50
49
48
47
55
54
46
28
29
20
30
31
32
21
33
34
35
36
22
37
38
39
23
40
41
42
43
44
24
11
4
10
9
3
2
8
7
6
-1
EOF